language ESSENCE' 1.0
letting initGrid be [
    [1, 1, 1, 2, 2, 3, 4],
[4, 5, 1, 6, 1, 4, 2],
[2, 6, 6, 1, 6, 6, 2],
[4, 2, 6, 1, 3, 4, 3],
[2, 4, 2, 1, 6, 4, 6],
[6, 4, 1, 6, 3, 3, 3],
[1, 1, 5, 1, 3, 5, 1]
    ]
letting goalBlocksRemaining be 6
letting noSteps be 29
